NAME : GIL261C
TYPE : PDTSP
DIMENSION : 261
EDGE_WEIGHT_TYPE : EUC_2D
NODE_COORD_SECTION
1 -99 -97
2 -59 50
3 0 14
4 -17 -66
5 -69 -19
6 31 12
7 5 -41
8 -12 10
9 -64 70
10 -12 85
11 -18 64
12 -77 -16
13 -53 88
14 83 -24
15 24 41
16 17 21
17 42 96
18 -65 0
19 -47 -26
20 85 36
21 -35 -54
22 54 -21
23 64 -17
24 55 89
25 17 -25
26 -61 66
27 -61 26
28 17 -72
29 79 38
30 -62 -2
31 -90 -68
32 52 66
33 -54 -50
34 8 -84
35 37 -90
36 -83 49
37 35 -1
38 7 59
39 12 48
40 57 95
41 92 28
42 -3 97
43 -7 52
44 42 -15
45 77 -43
46 59 -49
47 25 91
48 69 -19
49 -82 -14
50 74 -70
51 69 59
52 29 33
53 -97 9
54 -58 9
55 28 93
56 7 73
57 -28 73
58 -76 55
59 41 42
60 92 40
61 -84 -29
62 -12 42
63 51 -45
64 -37 46
65 -97 35
66 14 89
67 60 58
68 -63 -75
69 -18 34
70 -46 -82
71 -86 -79
72 -43 -30
73 -44 7
74 -3 -20
75 36 41
76 -30 -94
77 79 -62
78 51 70
79 -61 -26
80 6 94
81 -19 -62
82 -20 51
83 -81 37
84 7 31
85 52 12
86 83 -91
87 -7 -92
88 82 -74
89 -70 85
90 -83 -30
91 71 -61
92 85 11
93 66 -48
94 78 -87
95 9 -79
96 -36 4
97 66 39
98 92 -17
99 -46 -79
100 -30 -63
101 -42 63
102 20 42
103 15 98
104 1 -17
105 64 20
106 -96 85
107 93 -29
108 -40 -84
109 86 35
110 91 36
111 62 -8
112 -24 4
113 11 96
114 -53 62
115 -28 -71
116 7 -4
117 95 -9
118 -3 17
119 53 -90
120 58 -19
121 -83 84
122 -1 49
123 -4 17
124 -82 -3
125 -43 47
126 6 -6
127 70 99
128 68 -29
129 -94 -30
130 -94 -20
131 -21 77
132 64 37
133 -70 -19
134 88 65
135 2 29
136 33 57
137 -70 6
138 -38 -56
139 -80 -95
140 -5 -39
141 8 -22
142 -61 -76
143 76 -22
144 49 -71
145 -30 -68
146 1 34
147 77 79
148 -58 64
149 82 -97
150 -80 55
151 81 -86
152 39 -49
153 -67 72
154 -25 -89
155 -44 -95
156 32 -68
157 -17 49
158 93 49
159 99 81
160 63 -41
161 38 39
162 -28 39
163 -2 -47
164 38 8
165 -42 -6
166 -67 88
167 19 93
168 40 27
169 -61 56
170 43 33
171 -18 -39
172 -69 19
173 75 -18
174 31 85
175 25 58
176 -16 36
177 91 15
178 60 -39
179 49 -47
180 42 33
181 16 -81
182 -78 53
183 53 -80
184 -46 -26
185 -25 -54
186 69 -46
187 0 -78
188 -84 74
189 -16 16
190 -63 -14
191 51 -77
192 -39 61
193 5 97
194 -55 39
195 70 -14
196 0 95
197 -45 7
198 38 -24
199 50 -37
200 59 71
201 -73 -96
202 -29 72
203 -47 12
204 -88 -61
205 -88 36
206 -46 -3
207 26 -37
208 -39 -67
209 92 27
210 -80 -31
211 93 -50
212 -20 -5
213 -22 73
214 -4 -7
215 54 -48
216 -70 39
217 54 -82
218 29 41
219 -87 51
220 -96 -36
221 49 8
222 -5 54
223 -26 43
224 -11 60
225 40 61
226 82 35
227 -92 12
228 -93 -86
229 -66 63
230 -72 -87
231 -57 -84
232 23 52
233 -56 -62
234 -19 59
235 63 -14
236 -13 38
237 -19 87
238 44 -84
239 98 -17
240 -16 62
241 3 66
242 26 22
243 -38 -81
244 70 80
245 17 -35
246 96 -83
247 -77 80
248 -14 44
249 -33 33
250 33 -33
251 70 0
252 -50 60
253 -50 -60
254 75 0
255 0 75
256 -75 0
257 0 -75
258 40 80
259 40 -80
260 -60 20
261 -60 -20
PICKUP_AND_DELIVERY_SECTION
1 0 0 0 0 0 0
2 0 0 0 0 181 0
3 0 0 0 0 259 0
4 0 0 0 0 0 226
5 0 0 0 0 0 70
6 0 0 0 0 131 0
7 0 0 0 0 234 0
8 0 0 0 0 0 174
9 0 0 0 0 49 0
10 0 0 0 0 0 245
11 0 0 0 0 0 129
12 0 0 0 0 63 0
13 0 0 0 0 235 0
14 0 0 0 0 157 0
15 0 0 0 0 0 27
16 0 0 0 0 0 147
17 0 0 0 0 0 250
18 0 0 0 0 0 186
19 0 0 0 0 0 53
20 0 0 0 0 0 67
21 0 0 0 0 88 0
22 0 0 0 0 0 148
23 0 0 0 0 207 0
24 0 0 0 0 189 0
25 0 0 0 0 0 191
26 0 0 0 0 227 0
27 0 0 0 0 15 0
28 0 0 0 0 203 0
29 0 0 0 0 127 0
30 0 0 0 0 0 256
31 0 0 0 0 71 0
32 0 0 0 0 0 138
33 0 0 0 0 0 101
34 0 0 0 0 0 168
35 0 0 0 0 136 0
36 0 0 0 0 118 0
37 0 0 0 0 140 0
38 0 0 0 0 0 98
39 0 0 0 0 0 64
40 0 0 0 0 0 249
41 0 0 0 0 212 0
42 0 0 0 0 0 146
43 0 0 0 0 0 143
44 0 0 0 0 173 0
45 0 0 0 0 128 0
46 0 0 0 0 0 251
47 0 0 0 0 0 124
48 0 0 0 0 242 0
49 0 0 0 0 0 9
50 0 0 0 0 0 111
51 0 0 0 0 0 170
52 0 0 0 0 72 0
53 0 0 0 0 19 0
54 0 0 0 0 159 0
55 0 0 0 0 228 0
56 0 0 0 0 122 0
57 0 0 0 0 0 190
58 0 0 0 0 0 211
59 0 0 0 0 176 0
60 0 0 0 0 217 0
61 0 0 0 0 0 158
62 0 0 0 0 253 0
63 0 0 0 0 0 12
64 0 0 0 0 39 0
65 0 0 0 0 243 0
66 0 0 0 0 236 0
67 0 0 0 0 20 0
68 0 0 0 0 0 200
69 0 0 0 0 0 232
70 0 0 0 0 5 0
71 0 0 0 0 0 31
72 0 0 0 0 0 52
73 0 0 0 0 0 201
74 0 0 0 0 132 0
75 0 0 0 0 248 0
76 0 0 0 0 0 103
77 0 0 0 0 92 0
78 0 0 0 0 0 244
79 0 0 0 0 0 114
80 0 0 0 0 0 125
81 0 0 0 0 144 0
82 0 0 0 0 0 231
83 0 0 0 0 91 0
84 0 0 0 0 237 0
85 0 0 0 0 142 0
86 0 0 0 0 238 0
87 0 0 0 0 0 252
88 0 0 0 0 0 21
89 0 0 0 0 106 0
90 0 0 0 0 0 153
91 0 0 0 0 0 83
92 0 0 0 0 0 77
93 0 0 0 0 117 0
94 0 0 0 0 0 160
95 0 0 0 0 150 0
96 0 0 0 0 156 0
97 0 0 0 0 261 0
98 0 0 0 0 38 0
99 0 0 0 0 134 0
100 0 0 0 0 135 0
101 0 0 0 0 33 0
102 0 0 0 0 184 0
103 0 0 0 0 76 0
104 0 0 0 0 0 222
105 0 0 0 0 151 0
106 0 0 0 0 0 89
107 0 0 0 0 0 258
108 0 0 0 0 0 257
109 0 0 0 0 0 202
110 0 0 0 0 0 177
111 0 0 0 0 50 0
112 0 0 0 0 0 260
113 0 0 0 0 0 139
114 0 0 0 0 79 0
115 0 0 0 0 0 182
116 0 0 0 0 0 223
117 0 0 0 0 0 93
118 0 0 0 0 0 36
119 0 0 0 0 0 215
120 0 0 0 0 0 230
121 0 0 0 0 0 152
122 0 0 0 0 0 56
123 0 0 0 0 179 0
124 0 0 0 0 47 0
125 0 0 0 0 80 0
126 0 0 0 0 0 187
127 0 0 0 0 0 29
128 0 0 0 0 0 45
129 0 0 0 0 11 0
130 0 0 0 0 166 0
131 0 0 0 0 0 6
132 0 0 0 0 0 74
133 0 0 0 0 0 254
134 0 0 0 0 0 99
135 0 0 0 0 0 100
136 0 0 0 0 0 35
137 0 0 0 0 165 0
138 0 0 0 0 32 0
139 0 0 0 0 113 0
140 0 0 0 0 0 37
141 0 0 0 0 204 0
142 0 0 0 0 0 85
143 0 0 0 0 43 0
144 0 0 0 0 0 81
145 0 0 0 0 0 149
146 0 0 0 0 42 0
147 0 0 0 0 16 0
148 0 0 0 0 22 0
149 0 0 0 0 145 0
150 0 0 0 0 0 95
151 0 0 0 0 0 105
152 0 0 0 0 121 0
153 0 0 0 0 90 0
154 0 0 0 0 0 199
155 0 0 0 0 194 0
156 0 0 0 0 0 96
157 0 0 0 0 0 14
158 0 0 0 0 61 0
159 0 0 0 0 0 54
160 0 0 0 0 94 0
161 0 0 0 0 255 0
162 0 0 0 0 0 192
163 0 0 0 0 167 0
164 0 0 0 0 0 205
165 0 0 0 0 0 137
166 0 0 0 0 0 130
167 0 0 0 0 0 163
168 0 0 0 0 34 0
169 0 0 0 0 198 0
170 0 0 0 0 51 0
171 0 0 0 0 0 225
172 0 0 0 0 0 220
173 0 0 0 0 0 44
174 0 0 0 0 8 0
175 0 0 0 0 241 0
176 0 0 0 0 0 59
177 0 0 0 0 110 0
178 0 0 0 0 0 185
179 0 0 0 0 0 123
180 0 0 0 0 0 224
181 0 0 0 0 0 2
182 0 0 0 0 115 0
183 0 0 0 0 208 0
184 0 0 0 0 0 102
185 0 0 0 0 178 0
186 0 0 0 0 18 0
187 0 0 0 0 126 0
188 0 0 0 0 0 197
189 0 0 0 0 0 24
190 0 0 0 0 57 0
191 0 0 0 0 25 0
192 0 0 0 0 162 0
193 0 0 0 0 218 0
194 0 0 0 0 0 155
195 0 0 0 0 0 221
196 0 0 0 0 0 206
197 0 0 0 0 188 0
198 0 0 0 0 0 169
199 0 0 0 0 154 0
200 0 0 0 0 68 0
201 0 0 0 0 73 0
202 0 0 0 0 109 0
203 0 0 0 0 0 28
204 0 0 0 0 0 141
205 0 0 0 0 164 0
206 0 0 0 0 196 0
207 0 0 0 0 0 23
208 0 0 0 0 0 183
209 0 0 0 0 233 0
210 0 0 0 0 240 0
211 0 0 0 0 58 0
212 0 0 0 0 0 41
213 0 0 0 0 0 239
214 0 0 0 0 219 0
215 0 0 0 0 119 0
216 0 0 0 0 0 247
217 0 0 0 0 0 60
218 0 0 0 0 0 193
219 0 0 0 0 0 214
220 0 0 0 0 172 0
221 0 0 0 0 195 0
222 0 0 0 0 104 0
223 0 0 0 0 116 0
224 0 0 0 0 180 0
225 0 0 0 0 171 0
226 0 0 0 0 4 0
227 0 0 0 0 0 26
228 0 0 0 0 0 55
229 0 0 0 0 246 0
230 0 0 0 0 120 0
231 0 0 0 0 82 0
232 0 0 0 0 69 0
233 0 0 0 0 0 209
234 0 0 0 0 0 7
235 0 0 0 0 0 13
236 0 0 0 0 0 66
237 0 0 0 0 0 84
238 0 0 0 0 0 86
239 0 0 0 0 213 0
240 0 0 0 0 0 210
241 0 0 0 0 0 175
242 0 0 0 0 0 48
243 0 0 0 0 0 65
244 0 0 0 0 78 0
245 0 0 0 0 10 0
246 0 0 0 0 0 229
247 0 0 0 0 216 0
248 0 0 0 0 0 75
249 0 0 0 0 40 0
250 0 0 0 0 17 0
251 0 0 0 0 46 0
252 0 0 0 0 87 0
253 0 0 0 0 0 62
254 0 0 0 0 133 0
255 0 0 0 0 0 161
256 0 0 0 0 30 0
257 0 0 0 0 108 0
258 0 0 0 0 107 0
259 0 0 0 0 0 3
260 0 0 0 0 112 0
261 0 0 0 0 0 97
DEPOT_SECTION
1 
-1
EOF
